(assert (forall ((pkt_0_4_6_0  Int  )(state_group_0_state_0_5_7_0  Int  )(state_group_0_state_1_6_8_0  Int  )) (let ((_n0 state_group_0_state_0_5_7_0 ))
(let ((_n1 2 ))
(let ((_n2 (ite (=  _n0  1)  _n1   _n0  ) ))
(let ((_n3 state_group_0_state_1_6_8_0 ))
(let ((_n4 false ))
(let ((_n5 (ite (=  _n0  1)  (ite  _n4  1 0)   _n3  ) ))
(let ((_n6 3 ))
(let ((_n7 (ite (=  _n5  999)  _n6   _n2  ) ))
(let ((_n8 (ite (=  _n2  2)  _n7   _n2  ) ))
(let ((_n9 true ))
(let ((_n10 (=   _n0   (ite  _n9  1 0) ) ))
(let ((_n11 (not  _n10 ) ))
(let ((_n12 (ite (=  _n0  1)  _n0   (ite  _n4  1 0)  ) ))
(let ((_n13 (<   (ite  _n4  1 0)   _n12 ) ))
(let ((_n14 (ite (=  _n0  1)  _n13   _n4  ) ))
(let ((_n15 1000 ))
(let ((_n16 (and   _n14   _n10 ) ))
(let ((_n17 (ite  _n16   _n3   (ite  _n4  1 0)  ) ))
(let ((_n18 (=   _n17   _n15 ) ))
(let ((_n19 (not  _n18 ) ))
(let ((_n20 (and   _n16   _n19 ) ))
(let ((_n21 (not  _n16 ) ))
(let ((_n22 (or   _n20   _n21 ) ))
(let ((_n23 pkt_0_4_6_0 ))
(let ((_n24 (ite  _n22   (ite  _n4  1 0)   _n23  ) ))
(let ((_n25 (ite  _n22   _n0   (ite  _n4  1 0)  ) ))
(let ((_n26 (+   _n25   _n24 ) ))
(let ((_n27 (and   _n20   _n16 ) ))
(let ((_n28 (+   _n0   (ite  _n27  1 0) ) ))
(let ((_n29 (ite (=  (ite  _n20  1 0)  1)  _n28   _n26  ) ))
(let ((_n30 (ite (=  (ite  _n14  1 0)  1)  _n29   _n0  ) ))
(let ((_n31 (ite (=  _n0  1)  (ite  _n4  1 0)   _n0  ) ))
(let ((_n32 (=   _n31   _n1 ) ))
(let ((_n33 (ite (=  _n0  1)  _n4   _n32  ) ))
(let ((_n34 (and   _n33   _n11 ) ))
(let ((_n35 (ite  _n34   _n1   (ite  _n4  1 0)  ) ))
(let ((_n36 (ite  _n34   (ite  _n4  1 0)   _n0  ) ))
(let ((_n37 (+   _n36   _n35 ) ))
(let ((_n38 (ite (=  (ite  _n33  1 0)  1)  _n37   _n0  ) ))
(let ((_n39 (ite (=  (ite  _n11  1 0)  1)  _n38   _n30  ) ))
(let ((_n40 (=   _n39   _n8 ) ))
(let ((_n42 (+   _n5   (ite  _n9  1 0) ) ))
(let ((_n43 (ite (=  _n2  2)  _n42   _n5  ) ))
(let ((_n44 (-  _n24 )))
(let ((_n45 (ite  _n22   (ite  _n4  1 0)   _n6  ) ))
(let ((_n46 (+   _n45   _n44 ) ))
(let ((_n47 (ite  _n22   (ite  _n4  1 0)   _n46  ) ))
(let ((_n48 (ite  _n22   _n3   (ite  _n4  1 0)  ) ))
(let ((_n49 (+   _n48   _n47 ) ))
(let ((_n50 (ite  _n27   (ite  _n4  1 0)   _n3  ) ))
(let ((_n51 (+   _n50   (ite  _n27  1 0) ) ))
(let ((_n52 (ite (=  (ite  _n20  1 0)  1)  _n51   _n49  ) ))
(let ((_n53 (ite (=  (ite  _n14  1 0)  1)  _n52   _n3  ) ))
(let ((_n54 (+   _n3   (ite  _n34  1 0) ) ))
(let ((_n55 (ite (=  (ite  _n33  1 0)  1)  _n54   _n3  ) ))
(let ((_n56 (ite (=  (ite  _n11  1 0)  1)  _n55   _n53  ) ))
(let ((_n57 (=   _n56   _n43 ) ))
(let ((_n59 (ite (=  _n23  0)  _n23   (ite  _n4  1 0)  ) ))
(let ((_n60 (ite (=  _n23  0)  _n59   _n23  ) ))
(let ((_n61 (=   _n60   _n23 ) ))
(implies  (and (and (>= state_group_0_state_1_6_8_0 0) (< state_group_0_state_1_6_8_0 1024 ))  (and (and (>= state_group_0_state_0_5_7_0 0) (< state_group_0_state_0_5_7_0 1024 ))  (and (>= pkt_0_4_6_0 0) (< pkt_0_4_6_0 1024 )) ) )   (and  _n40  _n57  _n61 )  )))))))))))))))))))))))))))))))))))))))))))))))))))))))))))))))
(check-sat)
(get-model)
(exit)